(set-info :source |printed by MathSAT|)
(declare-fun i1 () Int)
(declare-fun i1_next () Int)
(define-fun i1_ () Int (! i1 :next i1_next))
(declare-fun j1 () Int)
(declare-fun j1_next () Int)
(define-fun j1_ () Int (! j1 :next j1_next))
(declare-fun n1 () Int)
(declare-fun n1_next () Int)
(define-fun n1_ () Int (! n1 :next n1_next))
(declare-fun i2 () Int)
(declare-fun i2_next () Int)
(define-fun i2_ () Int (! i2 :next i2_next))
(declare-fun j2 () Int)
(declare-fun j2_next () Int)
(define-fun j2_ () Int (! j2 :next j2_next))
(declare-fun |.loc{5}| () Bool)
(declare-fun |.loc{6}| () Bool)
(define-fun in_equal () Bool (= n1_ i2_))
(define-fun in_i () Bool (= i1_ 0))
(define-fun .def_51 () Bool (and in_i in_equal))
(define-fun .def_48 () Bool (= j1_ 0))
(define-fun .def_52 () Bool (and .def_48 .def_51))
(define-fun .def_47 () Bool (= j2_ 0))
(define-fun .def_53 () Bool (and .def_47 .def_52))
(define-fun .def_17 () Bool (! |.loc{5}| :next |.loc{6}|))
(define-fun .def_43 () Bool (not .def_17))
(define-fun .def_54 () Bool (! (and .def_43 .def_53) :init true))
(define-fun .def_45 () Bool (not |.loc{6}|))
(define-fun .def_39 () Int (* (- 1) j2_next))
(define-fun .def_40 () Int (+ j2_ .def_39))
(define-fun .def_41 () Bool (= .def_40 (- 1)))
(define-fun .def_35 () Int (* (- 1) i2_next))
(define-fun .def_36 () Int (+ i2_ .def_35))
(define-fun .def_37 () Bool (= .def_36 1))
(define-fun .def_32 () Bool (= n1_ n1_next))
(define-fun .def_28 () Int (* (- 1) j1_next))
(define-fun .def_29 () Int (+ j1_ .def_28))
(define-fun .def_30 () Bool (= .def_29 (- 1)))
(define-fun .def_24 () Int (* (- 1) i1_next))
(define-fun .def_25 () Int (+ i1_ .def_24))
(define-fun .def_26 () Bool (= .def_25 (- 1)))
(define-fun .def_21 () Bool (<= 0 i2_))
(define-fun .def_19 () Bool (<= i1_ n1_))
(define-fun .def_22 () Bool (and .def_19 .def_21))
(define-fun .def_27 () Bool (and .def_22 .def_26))
(define-fun .def_31 () Bool (and .def_27 .def_30))
(define-fun .def_33 () Bool (and .def_31 .def_32))
(define-fun .def_38 () Bool (and .def_33 .def_37))
(define-fun .def_42 () Bool (and .def_38 .def_41))
(define-fun .def_44 () Bool (and .def_42 .def_43))
(define-fun .def_46 () Bool (! (and .def_44 .def_45) :trans true))
(define-fun .def_58 () Bool (= j1_ j2_))
(define-fun .def_59 () Bool (not .def_58))
(define-fun .def_55 () Bool (not .def_21))
(define-fun .def_60 () Bool (and .def_55 .def_59))
(define-fun .def_61 () Bool (or .def_21 .def_60))
(define-fun .def_57 () Bool (not .def_19))
(define-fun .def_62 () Bool (and .def_57 .def_61))
(define-fun .def_56 () Bool (and .def_19 .def_55))
(define-fun .def_63 () Bool (or .def_56 .def_62))
(define-fun .def_64 () Bool (and .def_43 .def_63))
(define-fun .def_65 () Bool (! (not .def_64) :invar-property 0))
(assert true)
